%NProcShared=24
%mem=48GB
%Chk=sps_syn.chk
#n B3LYP/6-311+g** Opt geom=check guess=read

 sps_syn

-3 1