%NProcShared=24
%mem=48GB
%Chk=sps_iso.chk
#n B3LYP/6-311+g** Opt geom=check guess=read

 sps_iso

-3 1