%NProcShared=24
%mem=48GB
%Chk=dvb_iso.chk
#n B3LYP/6-311+g** Opt geom=check guess=read

 dvb_iso

0 1
