%NProcShared=24
%mem=48GB
%Chk=dvb_syn.chk
#n B3LYP/6-311+g** Opt geom=check guess=read

 dvb_syn

0 1
